c File: data_files/evolved_graphs/g7259.col
c
c Auto generated graph
c
p edge 100 16
e 2 45
e 3 62
e 3 63
e 4 53
e 5 50
e 11 58
e 14 43
e 15 34
e 16 25
e 20 56
e 21 33
e 22 52
e 24 26
e 38 40
e 70 78
e 98 100
